<number of tasks>
28

<cycle time>
256

<task times>
1 70
2 59
3 33
4 6
5 1
6 27
7 17
8 62
9 31
10 53
11 21
12 19
13 108
14 52
15 5
16 8
17 97
18 8
19 47
20 67
21 17
22 8
23 3
24 21
25 107
26 3
27 2
28 72

<precedence relations>
1,2
1,3
1,4
1,5
1,8
1,19
1,21
1,22
1,23
1,24
1,26
2,6
2,17
3,28
4,28
5,28
6,7
7,18
8,9
9,10
10,11
10,12
11,15
12,13
13,14
13,16
14,28
15,28
16,28
17,28
18,28
19,20
20,28
21,28
22,28
23,28
24,25
25,28
26,27
27,28

<setup times forward>
1,2:3
1,3:2
1,4:1
1,5:1
1,8:3
1,19:1
1,21:2
1,22:3
1,23:2
1,24:1
1,26:4
2,3:5
2,4:2
2,5:2
2,6:5
2,8:6
2,9:1
2,10:5
2,11:7
2,12:4
2,13:2
2,14:1
2,15:8
2,16:7
2,19:2
2,20:1
2,21:1
2,22:6
2,23:1
2,24:4
2,25:5
2,26:7
2,27:8
3,2:5
3,4:3
3,5:3
3,7:2
3,8:1
3,9:4
3,11:2
3,12:1
3,13:3
3,14:4
3,15:3
3,16:2
3,17:5
3,18:1
3,19:3
3,20:4
3,21:4
3,22:1
3,23:4
3,24:1
3,26:2
3,27:3
3,28:3
4,2:2
4,3:3
4,6:3
4,7:1
4,8:4
4,9:1
4,10:3
4,11:5
4,12:2
4,14:1
4,15:6
4,16:5
4,17:2
4,18:2
4,20:1
4,21:1
4,22:4
4,23:1
4,24:2
4,25:3
4,26:5
4,27:6
5,2:2
5,3:3
5,6:3
5,7:1
5,8:4
5,9:1
5,10:3
5,11:5
5,12:2
5,14:1
5,15:6
5,16:5
5,17:2
5,18:2
5,20:1
5,21:1
5,22:4
5,23:1
5,24:2
5,25:3
5,26:5
5,27:6
6,4:3
6,5:3
6,7:2
6,8:1
6,9:4
6,11:2
6,12:1
6,13:3
6,14:4
6,15:3
6,16:2
6,17:5
6,19:3
6,20:4
6,21:4
6,22:1
6,23:4
6,24:1
6,26:2
6,27:3
7,3:2
7,4:1
7,5:1
7,8:3
7,9:2
7,10:2
7,11:4
7,12:1
7,13:1
7,14:2
7,15:5
7,16:4
7,17:3
7,18:1
7,19:1
7,20:2
7,21:2
7,22:3
7,23:2
7,24:1
7,25:2
7,26:4
7,27:5
8,2:6
8,3:1
8,4:4
8,5:4
8,6:1
8,7:3
8,9:5
8,17:6
8,18:2
8,19:4
8,20:5
8,21:5
8,23:5
8,24:2
8,25:1
8,26:1
8,27:2
9,2:1
9,3:4
9,4:1
9,5:1
9,6:4
9,7:2
9,10:4
9,17:1
9,18:3
9,19:1
9,22:5
9,24:3
9,25:4
9,26:6
9,27:7
10,2:5
10,4:3
10,5:3
10,7:2
10,11:2
10,12:1
10,17:5
10,18:1
10,19:3
10,20:4
10,21:4
10,22:1
10,23:4
10,24:1
10,26:2
10,27:3
11,2:7
11,3:2
11,4:5
11,5:5
11,6:2
11,7:4
11,12:3
11,13:5
11,14:6
11,15:1
11,17:7
11,18:3
11,19:5
11,20:6
11,21:6
11,22:1
11,23:6
11,24:3
11,25:2
11,27:1
12,2:4
12,3:1
12,4:2
12,5:2
12,6:1
12,7:1
12,11:3
12,13:2
12,15:4
12,17:4
12,19:2
12,20:3
12,21:3
12,22:2
12,23:3
12,25:1
12,26:3
12,27:4
13,2:2
13,3:3
13,6:3
13,7:1
13,11:5
13,14:1
13,15:6
13,16:5
13,17:2
13,18:2
13,20:1
13,21:1
13,22:4
13,23:1
13,24:2
13,25:3
13,26:5
13,27:6
14,2:1
14,3:4
14,4:1
14,5:1
14,6:4
14,7:2
14,11:6
14,15:7
14,16:6
14,17:1
14,18:3
14,19:1
14,22:5
14,24:3
14,25:4
14,26:6
14,27:7
14,28:1
15,2:8
15,3:3
15,4:6
15,5:6
15,6:3
15,7:5
15,12:4
15,13:6
15,14:7
15,16:1
15,17:8
15,18:4
15,19:6
15,20:7
15,21:7
15,22:2
15,23:7
15,24:4
15,25:3
15,26:1
15,28:6
16,2:7
16,3:2
16,4:5
16,5:5
16,6:2
16,7:4
16,14:6
16,15:1
16,17:7
16,18:3
16,19:5
16,20:6
16,21:6
16,22:1
16,23:6
16,24:3
16,25:2
16,27:1
16,28:5
17,3:5
17,4:2
17,5:2
17,6:5
17,7:3
17,8:6
17,9:1
17,10:5
17,11:7
17,12:4
17,13:2
17,14:1
17,15:8
17,16:7
17,18:4
17,19:2
17,20:1
17,21:1
17,22:6
17,23:1
17,24:4
17,25:5
17,26:7
17,27:8
17,28:2
18,3:1
18,4:2
18,5:2
18,8:2
18,9:3
18,10:1
18,11:3
18,13:2
18,14:3
18,15:4
18,16:3
18,17:4
18,19:2
18,20:3
18,21:3
18,22:2
18,23:3
18,25:1
18,26:3
18,27:4
18,28:2
19,2:2
19,3:3
19,6:3
19,7:1
19,8:4
19,9:1
19,10:3
19,11:5
19,12:2
19,14:1
19,15:6
19,16:5
19,17:2
19,18:2
19,20:1
19,21:1
19,22:4
19,23:1
19,24:2
19,25:3
19,26:5
19,27:6
20,2:1
20,3:4
20,4:1
20,5:1
20,6:4
20,7:2
20,8:5
20,10:4
20,11:6
20,12:3
20,13:1
20,15:7
20,16:6
20,17:1
20,18:3
20,22:5
20,24:3
20,25:4
20,26:6
20,27:7
20,28:1
21,2:1
21,3:4
21,4:1
21,5:1
21,6:4
21,7:2
21,8:5
21,10:4
21,11:6
21,12:3
21,13:1
21,15:7
21,16:6
21,17:1
21,18:3
21,19:1
21,22:5
21,24:3
21,25:4
21,26:6
21,27:7
21,28:1
22,2:6
22,3:1
22,4:4
22,5:4
22,6:1
22,7:3
22,9:5
22,10:1
22,11:1
22,12:2
22,13:4
22,14:5
22,15:2
22,16:1
22,17:6
22,18:2
22,19:4
22,20:5
22,21:5
22,23:5
22,24:2
22,25:1
22,26:1
22,27:2
22,28:4
23,2:1
23,3:4
23,4:1
23,5:1
23,6:4
23,7:2
23,8:5
23,10:4
23,11:6
23,12:3
23,13:1
23,15:7
23,16:6
23,17:1
23,18:3
23,19:1
23,22:5
23,24:3
23,25:4
23,26:6
23,27:7
23,28:1
24,2:4
24,3:1
24,4:2
24,5:2
24,6:1
24,7:1
24,8:2
24,9:3
24,10:1
24,11:3
24,13:2
24,14:3
24,15:4
24,16:3
24,17:4
24,19:2
24,20:3
24,21:3
24,22:2
24,23:3
24,25:1
24,26:3
24,27:4
25,2:5
25,4:3
25,5:3
25,7:2
25,8:1
25,9:4
25,11:2
25,12:1
25,13:3
25,14:4
25,15:3
25,16:2
25,17:5
25,18:1
25,19:3
25,20:4
25,21:4
25,22:1
25,23:4
25,26:2
25,27:3
25,28:3
26,2:7
26,3:2
26,4:5
26,5:5
26,6:2
26,7:4
26,8:1
26,9:6
26,10:2
26,12:3
26,13:5
26,14:6
26,15:1
26,17:7
26,18:3
26,19:5
26,20:6
26,21:6
26,22:1
26,23:6
26,24:3
26,25:2
26,27:1
27,2:8
27,3:3
27,4:6
27,5:6
27,6:3
27,7:5
27,8:2
27,9:7
27,10:3
27,11:1
27,12:4
27,13:6
27,14:7
27,16:1
27,17:8
27,18:4
27,19:6
27,20:7
27,21:7
27,22:2
27,23:7
27,24:4
27,25:3
27,28:6

<setup times backward>
1,1:9
2,1:12
2,2:9
2,3:14
2,4:11
2,5:11
2,8:15
2,9:10
2,10:14
2,11:16
2,12:13
2,13:11
2,14:10
2,15:17
2,16:16
2,19:11
2,20:10
2,21:10
2,22:15
2,23:10
2,24:13
2,25:14
2,26:16
2,27:17
3,1:7
3,2:4
3,3:9
3,4:6
3,5:6
3,6:9
3,7:7
3,8:10
3,9:5
3,10:9
3,11:11
3,12:8
3,13:6
3,14:5
3,15:12
3,16:11
3,17:4
3,18:8
3,19:6
3,20:5
3,21:5
3,22:10
3,23:5
3,24:8
3,25:9
3,26:11
3,27:12
4,1:10
4,2:7
4,3:12
4,4:9
4,5:9
4,6:12
4,7:10
4,8:13
4,9:8
4,10:12
4,11:14
4,12:11
4,13:9
4,14:8
4,15:15
4,16:14
4,17:7
4,18:11
4,19:9
4,20:8
4,21:8
4,22:13
4,23:8
4,24:11
4,25:12
4,26:14
4,27:15
5,1:10
5,2:7
5,3:12
5,4:9
5,5:9
5,6:12
5,7:10
5,8:13
5,9:8
5,10:12
5,11:14
5,12:11
5,13:9
5,14:8
5,15:15
5,16:14
5,17:7
5,18:11
5,19:9
5,20:8
5,21:8
5,22:13
5,23:8
5,24:11
5,25:12
5,26:14
5,27:15
6,1:7
6,2:4
6,3:9
6,4:6
6,5:6
6,6:9
6,8:10
6,9:5
6,10:9
6,11:11
6,12:8
6,13:6
6,14:5
6,15:12
6,16:11
6,17:4
6,19:6
6,20:5
6,21:5
6,22:10
6,23:5
6,24:8
6,25:9
6,26:11
6,27:12
7,1:9
7,2:6
7,3:11
7,4:8
7,5:8
7,6:11
7,7:9
7,8:12
7,9:7
7,10:11
7,11:13
7,12:10
7,13:8
7,14:7
7,15:14
7,16:13
7,17:6
7,19:8
7,20:7
7,21:7
7,22:12
7,23:7
7,24:10
7,25:11
7,26:13
7,27:14
8,1:6
8,2:3
8,3:8
8,4:5
8,5:5
8,6:8
8,7:6
8,8:9
8,17:3
8,18:7
8,19:5
8,20:4
8,21:4
8,22:9
8,23:4
8,24:7
8,25:8
8,26:10
8,27:11
9,1:11
9,2:8
9,3:13
9,4:10
9,5:10
9,6:13
9,7:11
9,8:14
9,9:9
9,17:8
9,18:12
9,19:10
9,20:9
9,21:9
9,22:14
9,23:9
9,24:12
9,25:13
9,26:15
9,27:16
10,1:7
10,2:4
10,3:9
10,4:6
10,5:6
10,6:9
10,7:7
10,8:10
10,9:5
10,10:9
10,17:4
10,18:8
10,19:6
10,20:5
10,21:5
10,22:10
10,23:5
10,24:8
10,25:9
10,26:11
10,27:12
11,1:5
11,2:2
11,3:7
11,4:4
11,5:4
11,6:7
11,7:5
11,8:8
11,9:3
11,10:7
11,11:9
11,12:6
11,13:4
11,14:3
11,16:9
11,17:2
11,18:6
11,19:4
11,20:3
11,21:3
11,22:8
11,23:3
11,24:6
11,25:7
11,26:9
11,27:10
12,1:8
12,2:5
12,3:10
12,4:7
12,5:7
12,6:10
12,7:8
12,8:11
12,9:6
12,10:10
12,11:12
12,12:9
12,15:13
12,17:5
12,18:9
12,19:7
12,20:6
12,21:6
12,22:11
12,23:6
12,24:9
12,25:10
12,26:12
12,27:13
13,1:10
13,2:7
13,3:12
13,4:9
13,5:9
13,6:12
13,7:10
13,8:13
13,9:8
13,10:12
13,11:14
13,12:11
13,13:9
13,15:15
13,17:7
13,18:11
13,19:9
13,20:8
13,21:8
13,22:13
13,23:8
13,24:11
13,25:12
13,26:14
13,27:15
14,1:11
14,2:8
14,3:13
14,4:10
14,5:10
14,6:13
14,7:11
14,8:14
14,9:9
14,10:13
14,11:15
14,12:12
14,13:10
14,14:9
14,15:16
14,16:15
14,17:8
14,18:12
14,19:10
14,20:9
14,21:9
14,22:14
14,23:9
14,24:12
14,25:13
14,26:15
14,27:16
15,1:4
15,2:1
15,3:6
15,4:3
15,5:3
15,6:6
15,7:4
15,8:7
15,9:2
15,10:6
15,11:8
15,12:5
15,13:3
15,14:2
15,15:9
15,16:8
15,17:1
15,18:5
15,19:3
15,20:2
15,21:2
15,22:7
15,23:2
15,24:5
15,25:6
15,26:8
15,27:9
16,1:5
16,2:2
16,3:7
16,4:4
16,5:4
16,6:7
16,7:5
16,8:8
16,9:3
16,10:7
16,11:9
16,12:6
16,13:4
16,14:3
16,15:10
16,16:9
16,17:2
16,18:6
16,19:4
16,20:3
16,21:3
16,22:8
16,23:3
16,24:6
16,25:7
16,26:9
16,27:10
17,1:12
17,2:9
17,3:14
17,4:11
17,5:11
17,6:14
17,7:12
17,8:15
17,9:10
17,10:14
17,11:16
17,12:13
17,13:11
17,14:10
17,15:17
17,16:16
17,17:9
17,18:13
17,19:11
17,20:10
17,21:10
17,22:15
17,23:10
17,24:13
17,25:14
17,26:16
17,27:17
18,1:8
18,2:5
18,3:10
18,4:7
18,5:7
18,6:10
18,7:8
18,8:11
18,9:6
18,10:10
18,11:12
18,12:9
18,13:7
18,14:6
18,15:13
18,16:12
18,17:5
18,18:9
18,19:7
18,20:6
18,21:6
18,22:11
18,23:6
18,24:9
18,25:10
18,26:12
18,27:13
19,1:10
19,2:7
19,3:12
19,4:9
19,5:9
19,6:12
19,7:10
19,8:13
19,9:8
19,10:12
19,11:14
19,12:11
19,13:9
19,14:8
19,15:15
19,16:14
19,17:7
19,18:11
19,19:9
19,21:8
19,22:13
19,23:8
19,24:11
19,25:12
19,26:14
19,27:15
20,1:11
20,2:8
20,3:13
20,4:10
20,5:10
20,6:13
20,7:11
20,8:14
20,9:9
20,10:13
20,11:15
20,12:12
20,13:10
20,14:9
20,15:16
20,16:15
20,17:8
20,18:12
20,19:10
20,20:9
20,21:9
20,22:14
20,23:9
20,24:12
20,25:13
20,26:15
20,27:16
21,1:11
21,2:8
21,3:13
21,4:10
21,5:10
21,6:13
21,7:11
21,8:14
21,9:9
21,10:13
21,11:15
21,12:12
21,13:10
21,14:9
21,15:16
21,16:15
21,17:8
21,18:12
21,19:10
21,20:9
21,21:9
21,22:14
21,23:9
21,24:12
21,25:13
21,26:15
21,27:16
22,1:6
22,2:3
22,3:8
22,4:5
22,5:5
22,6:8
22,7:6
22,8:9
22,9:4
22,10:8
22,11:10
22,12:7
22,13:5
22,14:4
22,15:11
22,16:10
22,17:3
22,18:7
22,19:5
22,20:4
22,21:4
22,22:9
22,23:4
22,24:7
22,25:8
22,26:10
22,27:11
23,1:11
23,2:8
23,3:13
23,4:10
23,5:10
23,6:13
23,7:11
23,8:14
23,9:9
23,10:13
23,11:15
23,12:12
23,13:10
23,14:9
23,15:16
23,16:15
23,17:8
23,18:12
23,19:10
23,20:9
23,21:9
23,22:14
23,23:9
23,24:12
23,25:13
23,26:15
23,27:16
24,1:8
24,2:5
24,3:10
24,4:7
24,5:7
24,6:10
24,7:8
24,8:11
24,9:6
24,10:10
24,11:12
24,12:9
24,13:7
24,14:6
24,15:13
24,16:12
24,17:5
24,18:9
24,19:7
24,20:6
24,21:6
24,22:11
24,23:6
24,24:9
24,26:12
24,27:13
25,1:7
25,2:4
25,3:9
25,4:6
25,5:6
25,6:9
25,7:7
25,8:10
25,9:5
25,10:9
25,11:11
25,12:8
25,13:6
25,14:5
25,15:12
25,16:11
25,17:4
25,18:8
25,19:6
25,20:5
25,21:5
25,22:10
25,23:5
25,24:8
25,25:9
25,26:11
25,27:12
26,1:5
26,2:2
26,3:7
26,4:4
26,5:4
26,6:7
26,7:5
26,8:8
26,9:3
26,10:7
26,11:9
26,12:6
26,13:4
26,14:3
26,15:10
26,16:9
26,17:2
26,18:6
26,19:4
26,20:3
26,21:3
26,22:8
26,23:3
26,24:6
26,25:7
26,26:9
27,1:4
27,2:1
27,3:6
27,4:3
27,5:3
27,6:6
27,7:4
27,8:7
27,9:2
27,10:6
27,11:8
27,12:5
27,13:3
27,14:2
27,15:9
27,16:8
27,17:1
27,18:5
27,19:3
27,20:2
27,21:2
27,22:7
27,23:2
27,24:5
27,25:6
27,26:8
27,27:9
28,1:10
28,2:7
28,3:12
28,4:9
28,5:9
28,6:12
28,7:10
28,8:13
28,9:8
28,10:12
28,11:14
28,12:11
28,13:9
28,14:8
28,15:15
28,16:14
28,17:7
28,18:11
28,19:9
28,20:8
28,21:8
28,22:13
28,23:8
28,24:11
28,25:12
28,26:14
28,27:15
28,28:9

<end>

<optimal SALBP-1 value>
4


<rand seed>
467321153

